c preprocessed version of BN_78, 33 vertices, 174 edges
p td 33 174
0 1
8 0
7 0
9 0
13 0
1 2
7 1
19 1
3 2
12 2
11 2
19 2
21 2
3 4
12 3
8 3
16 3
19 3
9 3
20 3
13 3
17 3
22 3
5 4
8 4
16 4
18 4
15 4
9 4
17 4
5 6
8 5
18 5
7 5
17 5
7 6
8 6
9 6
13 6
7 8
7 19
9 8
20 8
13 8
10 9
9 16
13 9
17 9
22 9
10 11
10 18
10 19
21 10
20 10
13 10
17 10
22 10
11 12
11 18
14 11
13 11
13 12
17 12
13 14
13 20
13 17
22 13
14 15
21 14
17 14
15 16
21 15
17 15
17 16
17 18
17 19
17 21
17 20
17 22
20 19
22 19
21 20
22 20
23 24
23 5
23 29
23 6
23 8
23 27
23 28
23 26
23 25
23 7
23 31
23 30
24 0
24 29
24 32
24 8
24 27
24 28
24 26
24 25
24 9
24 31
24 30
25 7
25 27
25 19
25 29
25 28
25 26
25 31
25 30
26 5
26 2
26 7
26 6
26 8
26 27
26 11
26 29
26 28
26 14
26 21
26 31
26 13
26 17
26 30
27 4
27 3
27 12
27 28
27 29
27 16
27 19
27 15
27 31
27 13
27 17
27 30
28 8
28 29
28 31
28 13
28 30
29 0
29 31
29 13
29 30
30 32
30 13
30 17
30 22
30 16
30 31
31 32
31 10
31 21
31 20
32 23
32 25
32 26
32 27
32 28
32 29
32 0
32 3
32 2
32 8
32 9
32 20
32 10
32 13
